NAME : instances/clustered-mixed-tsp/instance-14.tsp
COMMENT : No Comment
TYPE : TSP
DIMENSION: 40
EDGE_WEIGHT_TYPE : EUC_2D
NODE_COORD_SECTION
1 2363 1591 
2 3400 2104 
3 2023 1077 
4 2402 1500 
5 3395 2112 
6 2454 1103 
7 2304 1323 
8 2134 1063 
9 661 177 
10 2194 1566 
11 2404 1630 
12 2498 1126 
13 2110 1248 
14 3337 1935 
15 2430 1378 
16 3476 2078 
17 2146 1591 
18 841 637 
19 3253 2244 
20 2198 1415 
21 1979 1503 
22 3182 2249 
23 3056 2285 
24 3373 2422 
25 2919 2403 
26 1919 1126 
27 2533 1126 
28 2131 1306 
29 2725 2201 
30 2233 1090 
31 1927 1430 
32 2110 1440 
33 376 679 
34 2508 2235 
35 2045 1555 
36 2117 1126 
37 2083 1633 
38 2433 1170 
39 2417 2192 
40 2156 1238 
EOF
